(set-info :smt-lib-version 2.6)
(set-logic AUFBVFPDTNIRA)
(set-info :source |
Generated by: AdaCore
Generated on: 2020-03-06
Generator: SPARK
Application: Program verification for Ada
Target solver: CVC4
|)
(set-info :license "https://creativecommons.org/licenses/by/4.0/")
(set-info :category "industrial")
(set-info :status unknown)
;;; generated by SMT-LIB2 driver
;;; SMT-LIB2 driver: bit-vectors, common part
;;; SMT-LIB2: integer arithmetic
(declare-sort string 0)

(declare-datatypes ((tuple0 0))
(((Tuple0))))
(declare-sort us_private 0)

(declare-fun private__bool_eq (us_private us_private) Bool)

(declare-const us_null_ext__ us_private)

(declare-sort us_type_of_heap 0)

(declare-datatypes ((us_type_of_heap__ref 0))
(((us_type_of_heap__refqtmk (us_type_of_heap__content us_type_of_heap)))))
(declare-sort us_image 0)

(declare-datatypes ((int__ref 0))
(((int__refqtmk (int__content Int)))))
(declare-datatypes ((bool__ref 0))
(((bool__refqtmk (bool__content Bool)))))
(declare-datatypes ((us_fixed__ref 0))
(((us_fixed__refqtmk (us_fixed__content Int)))))
(declare-datatypes ((real__ref 0))
(((real__refqtmk (real__content Real)))))
(declare-datatypes ((us_private__ref 0))
(((us_private__refqtmk (us_private__content us_private)))))
(define-fun int__ref___projection ((a int__ref)) Int (int__content a))

(define-fun us_fixed__ref___projection ((a us_fixed__ref)) Int (us_fixed__content
                                                               a))

(define-fun bool__ref___projection ((a bool__ref)) Bool (bool__content a))

(define-fun real__ref___projection ((a real__ref)) Real (real__content a))

(define-fun us_private__ref___projection ((a us_private__ref)) us_private 
  (us_private__content a))

(define-fun in_range ((x Int)) Bool (or (= x 0) (= x 1)))

(declare-fun attr__ATTRIBUTE_IMAGE (Bool) us_image)

(declare-fun attr__ATTRIBUTE_VALUE__pre_check (us_image) Bool)

(declare-fun attr__ATTRIBUTE_VALUE (us_image) Bool)

(declare-sort integer 0)

(declare-fun integerqtint (integer) Int)

;; integer'axiom
  (assert
  (forall ((i integer))
  (and (<= (- 2147483648) (integerqtint i)) (<= (integerqtint i) 2147483647))))

(define-fun in_range1 ((x Int)) Bool (and (<= (- 2147483648) x)
                                     (<= x 2147483647)))

(declare-fun attr__ATTRIBUTE_IMAGE1 (Int) us_image)

(declare-fun attr__ATTRIBUTE_VALUE__pre_check1 (us_image) Bool)

(declare-fun attr__ATTRIBUTE_VALUE1 (us_image) Int)

(declare-fun user_eq (integer integer) Bool)

(declare-const dummy integer)

(declare-datatypes ((integer__ref 0))
(((integer__refqtmk (integer__content integer)))))
(define-fun integer__ref_integer__content__projection ((a integer__ref)) integer 
  (integer__content a))

(define-fun to_rep ((x integer)) Int (integerqtint x))

(declare-fun of_rep (Int) integer)

;; inversion_axiom
  (assert
  (forall ((x integer)) (! (= (of_rep (to_rep x)) x) :pattern ((to_rep x)) )))

;; range_axiom
  (assert
  (forall ((x integer)) (! (in_range1 (to_rep x)) :pattern ((to_rep x)) )))

;; coerce_axiom
  (assert
  (forall ((x Int))
  (! (=> (in_range1 x) (= (to_rep (of_rep x)) x)) :pattern ((to_rep
                                                            (of_rep x))) )))

(declare-datatypes ((map__ref 0))
(((map__refqtmk (map__content (Array Int integer))))))
(declare-fun slide ((Array Int integer) Int Int) (Array Int integer))

;; slide_eq
  (assert
  (forall ((a (Array Int integer)))
  (forall ((first Int))
  (! (= (slide a first first) a) :pattern ((slide a first first)) ))))

;; slide_def
  (assert
  (forall ((a (Array Int integer)))
  (forall ((old_first Int))
  (forall ((new_first Int))
  (forall ((i Int))
  (! (= (select (slide a old_first new_first) i) (select a (- i (- new_first old_first)))) :pattern ((select 
  (slide a old_first new_first) i)) ))))))

(define-fun bool_eq ((a (Array Int integer)) (a__first Int) (a__last Int)
  (b (Array Int integer)) (b__first Int)
  (b__last Int)) Bool (ite (and
                           (ite (<= a__first a__last)
                           (and (<= b__first b__last)
                           (= (- a__last a__first) (- b__last b__first)))
                           (< b__last b__first))
                           (forall ((temp___idx_154 Int))
                           (=>
                           (and (<= a__first temp___idx_154)
                           (<= temp___idx_154 a__last))
                           (= (to_rep (select a temp___idx_154)) (to_rep
                                                                 (select b (+ (- b__first a__first) temp___idx_154)))))))
                      true false))

;; bool_eq_rev
  (assert
  (forall ((a (Array Int integer)) (b (Array Int integer)))
  (forall ((a__first Int) (a__last Int) (b__first Int) (b__last Int))
  (=> (= (bool_eq b b__first b__last a a__first a__last) true)
  (and
  (ite (<= a__first a__last)
  (and (<= b__first b__last) (= (- a__last a__first) (- b__last b__first)))
  (< b__last b__first))
  (forall ((temp___idx_154 Int))
  (=> (and (<= a__first temp___idx_154) (<= temp___idx_154 a__last))
  (= (to_rep (select a temp___idx_154)) (to_rep
                                        (select b (+ (- b__first a__first) temp___idx_154)))))))))))

(declare-const dummy1 (Array Int integer))

(declare-const value__size Int)

(declare-const object__size Int)

(declare-const component__size Int)

(declare-const alignment Int)

;; value__size_axiom
  (assert (<= 0 value__size))

;; object__size_axiom
  (assert (<= 0 object__size))

;; component__size_axiom
  (assert (<= 0 component__size))

;; alignment_axiom
  (assert (<= 0 alignment))

(declare-fun user_eq1 ((Array Int integer) (Array Int integer)) Bool)

(declare-sort map1 0)

(declare-datatypes ((map__ref1 0))
(((map__refqtmk1 (map__content1 map1)))))
(declare-fun get (map1 Int Int) (Array Int integer))

(declare-fun set (map1 Int Int (Array Int integer)) map1)

;; Select_eq
  (assert
  (forall ((m map1))
  (forall ((i Int))
  (forall ((j Int))
  (forall ((a (Array Int integer)))
  (! (= (get (set m i j a) i j) a) :pattern ((set m i j a)) ))))))

;; Select_neq
  (assert
  (forall ((m map1))
  (forall ((i Int) (i2 Int))
  (forall ((j Int) (j2 Int))
  (forall ((a (Array Int integer)))
  (! (=> (not (and (= i i2) (= j j2)))
     (= (get (set m i j a) i2 j2) (get m i2 j2))) :pattern ((get
                                                            (set m i j a) i2
                                                            j2)) :pattern (
  (set m i j a) (get m i2 j2)) ))))))

(declare-fun slide1 (map1 Int Int Int Int) map1)

;; slide_def
  (assert
  (forall ((a map1))
  (forall ((new_first Int) (old_first Int))
  (forall ((new_first_2 Int) (old_first_2 Int))
  (forall ((i Int))
  (forall ((j Int))
  (! (= (get (slide1 a old_first new_first old_first_2 new_first_2) i j) 
  (get a (- i (- new_first old_first)) (- j (- new_first_2 old_first_2)))) :pattern (
  (get (slide1 a old_first new_first old_first_2 new_first_2) i j)) )))))))

(define-fun bool_eq1 ((a map1) (a__first Int) (a__last Int) (a__first_2 Int)
  (a__last_2 Int) (b map1) (b__first Int) (b__last Int) (b__first_2 Int)
  (b__last_2 Int)) Bool (ite (and
                             (and
                             (ite (<= a__first a__last)
                             (and (<= b__first b__last)
                             (= (- a__last a__first) (- b__last b__first)))
                             (< b__last b__first))
                             (ite (<= a__first_2 a__last_2)
                             (and (<= b__first_2 b__last_2)
                             (= (- a__last_2 a__first_2) (- b__last_2 b__first_2)))
                             (< b__last_2 b__first_2)))
                             (forall ((temp___idx_155 Int)
                             (temp___idx_156 Int))
                             (=>
                             (and
                             (and (<= a__first temp___idx_155)
                             (<= temp___idx_155 a__last))
                             (and (<= a__first_2 temp___idx_156)
                             (<= temp___idx_156 a__last_2)))
                             (= (bool_eq
                                (get a temp___idx_155 temp___idx_156) 1 3
                                (get b
                                (+ (- b__first a__first) temp___idx_155)
                                (+ (- b__first_2 a__first_2) temp___idx_156))
                                1 3) true))))
                        true false))

;; bool_eq_rev
  (assert
  (forall ((a map1) (b map1))
  (forall ((a__first Int) (a__last Int) (a__first_2 Int) (a__last_2 Int)
  (b__first Int) (b__last Int) (b__first_2 Int) (b__last_2 Int))
  (=>
  (= (bool_eq1 b b__first b__last b__first_2 b__last_2 a a__first a__last
     a__first_2 a__last_2) true)
  (and
  (and
  (ite (<= a__first a__last)
  (and (<= b__first b__last) (= (- a__last a__first) (- b__last b__first)))
  (< b__last b__first))
  (ite (<= a__first_2 a__last_2)
  (and (<= b__first_2 b__last_2)
  (= (- a__last_2 a__first_2) (- b__last_2 b__first_2)))
  (< b__last_2 b__first_2)))
  (forall ((temp___idx_155 Int) (temp___idx_156 Int))
  (=>
  (and (and (<= a__first temp___idx_155) (<= temp___idx_155 a__last))
  (and (<= a__first_2 temp___idx_156) (<= temp___idx_156 a__last_2)))
  (= (bool_eq (get a temp___idx_155 temp___idx_156) 1 3
     (get b (+ (- b__first a__first) temp___idx_155)
     (+ (- b__first_2 a__first_2) temp___idx_156)) 1 3) true))))))))

(declare-const dummy2 map1)

(declare-const value__size1 Int)

(declare-const object__size1 Int)

(declare-const component__size1 Int)

(declare-const alignment1 Int)

;; value__size_axiom
  (assert (<= 0 value__size1))

;; object__size_axiom
  (assert (<= 0 object__size1))

;; component__size_axiom
  (assert (<= 0 component__size1))

;; alignment_axiom
  (assert (<= 0 alignment1))

(declare-fun user_eq2 (map1 map1) Bool)

(declare-datatypes ((map__ref2 0))
(((map__refqtmk2 (map__content2 (Array Int map1))))))
(declare-fun slide2 ((Array Int map1) Int Int) (Array Int map1))

;; slide_eq
  (assert
  (forall ((a (Array Int map1)))
  (forall ((first Int))
  (! (= (slide2 a first first) a) :pattern ((slide2 a first first)) ))))

;; slide_def
  (assert
  (forall ((a (Array Int map1)))
  (forall ((old_first Int))
  (forall ((new_first Int))
  (forall ((i Int))
  (! (= (select (slide2 a old_first new_first) i) (select a (- i (- new_first old_first)))) :pattern ((select 
  (slide2 a old_first new_first) i)) ))))))

(define-fun bool_eq2 ((a (Array Int map1)) (a__first Int) (a__last Int)
  (b (Array Int map1)) (b__first Int)
  (b__last Int)) Bool (ite (and
                           (ite (<= a__first a__last)
                           (and (<= b__first b__last)
                           (= (- a__last a__first) (- b__last b__first)))
                           (< b__last b__first))
                           (forall ((temp___idx_157 Int))
                           (=>
                           (and (<= a__first temp___idx_157)
                           (<= temp___idx_157 a__last))
                           (= (bool_eq1 (select a temp___idx_157) 1 3 1 3
                              (select b (+ (- b__first a__first) temp___idx_157))
                              1 3 1 3) true))))
                      true false))

;; bool_eq_rev
  (assert
  (forall ((a (Array Int map1)) (b (Array Int map1)))
  (forall ((a__first Int) (a__last Int) (b__first Int) (b__last Int))
  (=> (= (bool_eq2 b b__first b__last a a__first a__last) true)
  (and
  (ite (<= a__first a__last)
  (and (<= b__first b__last) (= (- a__last a__first) (- b__last b__first)))
  (< b__last b__first))
  (forall ((temp___idx_157 Int))
  (=> (and (<= a__first temp___idx_157) (<= temp___idx_157 a__last))
  (= (bool_eq1 (select a temp___idx_157) 1 3 1 3
     (select b (+ (- b__first a__first) temp___idx_157)) 1 3 1 3) true))))))))

(declare-const attr__ATTRIBUTE_ADDRESS Int)

(declare-const attr__ATTRIBUTE_ADDRESS1 Int)

(declare-const attr__ATTRIBUTE_ADDRESS2 Int)

(declare-const attr__ATTRIBUTE_ADDRESS3 Int)

(declare-const attr__ATTRIBUTE_ADDRESS4 Int)

(declare-sort index 0)

(declare-fun indexqtint (index) Int)

;; index'axiom
  (assert
  (forall ((i index)) (and (<= 1 (indexqtint i)) (<= (indexqtint i) 3))))

(define-fun in_range2 ((x Int)) Bool (and (<= 1 x) (<= x 3)))

(declare-fun attr__ATTRIBUTE_IMAGE2 (Int) us_image)

(declare-fun attr__ATTRIBUTE_VALUE__pre_check2 (us_image) Bool)

(declare-fun attr__ATTRIBUTE_VALUE2 (us_image) Int)

(declare-fun user_eq3 (index index) Bool)

(declare-const dummy3 index)

(declare-datatypes ((index__ref 0))
(((index__refqtmk (index__content index)))))
(define-fun index__ref_index__content__projection ((a index__ref)) index 
  (index__content a))

(declare-sort t 0)

(declare-fun first (t) integer)

(declare-fun last (t) integer)

(declare-fun mk (Int Int) t)

;; mk_def
  (assert
  (forall ((f Int) (l Int))
  (! (=> (in_range1 f)
     (=> (in_range1 l)
     (and (= (to_rep (first (mk f l))) f) (= (to_rep (last (mk f l))) l)))) :pattern (
  (mk f l)) )))

(define-fun dynamic_property ((range_first Int) (range_last Int) (low Int)
  (high Int)) Bool (and (in_range1 low)
                   (and (in_range1 high)
                   (=> (<= low high) (and (in_range2 low) (in_range2 high))))))

(declare-datatypes ((us_t 0))
(((us_tqtmk (elts (Array Int map1))(rt t)))))
(define-fun to_array ((a us_t)) (Array Int map1) (elts a))

(define-fun of_array ((a (Array Int map1)) (f Int)
  (l Int)) us_t (us_tqtmk a (mk f l)))

(define-fun first1 ((a us_t)) Int (to_rep (first (rt a))))

(define-fun last1 ((a us_t)) Int (to_rep (last (rt a))))

(define-fun length ((a us_t)) Int (ite (<= (first1 a) (last1 a))
                                  (+ (- (last1 a) (first1 a)) 1) 0))

(declare-const value__size2 Int)

(declare-const object__size2 Int)

(declare-const component__size2 Int)

(declare-const alignment2 Int)

;; value__size_axiom
  (assert (<= 0 value__size2))

;; object__size_axiom
  (assert (<= 0 object__size2))

;; component__size_axiom
  (assert (<= 0 component__size2))

;; alignment_axiom
  (assert (<= 0 alignment2))

(define-fun bool_eq3 ((x us_t)
  (y us_t)) Bool (bool_eq2 (elts x) (to_rep (first (rt x)))
                 (to_rep (last (rt x))) (elts y) (to_rep (first (rt y)))
                 (to_rep (last (rt y)))))

(declare-fun user_eq4 (us_t us_t) Bool)

(declare-const dummy4 us_t)

(declare-datatypes ((tt3B__ref 0))
(((tt3B__refqtmk (tt3B__content us_t)))))
(define-fun tt3B__ref_tt3B__content__projection ((a tt3B__ref)) us_t 
  (tt3B__content a))

(declare-datatypes ((t17b__ref 0))
(((t17b__refqtmk (t17b__content us_t)))))
(define-fun t17b__ref_t17b__content__projection ((a t17b__ref)) us_t 
  (t17b__content a))

(declare-datatypes ((t19b__ref 0))
(((t19b__refqtmk (t19b__content us_t)))))
(define-fun t19b__ref_t19b__content__projection ((a t19b__ref)) us_t 
  (t19b__content a))

(declare-datatypes ((t25b__ref 0))
(((t25b__refqtmk (t25b__content us_t)))))
(define-fun t25b__ref_t25b__content__projection ((a t25b__ref)) us_t 
  (t25b__content a))

(declare-datatypes ((t27b__ref 0))
(((t27b__refqtmk (t27b__content us_t)))))
(define-fun t27b__ref_t27b__content__projection ((a t27b__ref)) us_t 
  (t27b__content a))

(declare-datatypes ((t33b__ref 0))
(((t33b__refqtmk (t33b__content us_t)))))
(define-fun t33b__ref_t33b__content__projection ((a t33b__ref)) us_t 
  (t33b__content a))

(declare-datatypes ((t35b__ref 0))
(((t35b__refqtmk (t35b__content us_t)))))
(define-fun t35b__ref_t35b__content__projection ((a t35b__ref)) us_t 
  (t35b__content a))

(declare-datatypes ((t41b__ref 0))
(((t41b__refqtmk (t41b__content us_t)))))
(define-fun t41b__ref_t41b__content__projection ((a t41b__ref)) us_t 
  (t41b__content a))

(declare-datatypes ((t43b__ref 0))
(((t43b__refqtmk (t43b__content us_t)))))
(define-fun t43b__ref_t43b__content__projection ((a t43b__ref)) us_t 
  (t43b__content a))

(declare-fun p__x__aggregate_def (map1) (Array Int map1))

(declare-fun temp_____aggregate_def_232 ((Array Int integer)) map1)

(declare-fun temp_____aggregate_def_237 (Int) (Array Int integer))

(define-fun dynamic_invariant ((temp___expr_18 Int) (temp___is_init_14 Bool)
  (temp___skip_constant_15 Bool) (temp___do_toplevel_16 Bool)
  (temp___do_typ_inv_17 Bool)) Bool (=>
                                    (or (= temp___is_init_14 true)
                                    (<= (- 2147483648) 2147483647))
                                    (in_range1 temp___expr_18)))

(define-fun dynamic_invariant1 ((temp___expr_183 Int)
  (temp___is_init_179 Bool) (temp___skip_constant_180 Bool)
  (temp___do_toplevel_181 Bool)
  (temp___do_typ_inv_182 Bool)) Bool (=>
                                     (or (= temp___is_init_179 true)
                                     (<= 1 3)) (in_range2 temp___expr_183)))

;; def_axiom
  (assert
  (forall ((temp___230 map1))
  (forall ((temp___231 Int))
  (= (select (p__x__aggregate_def temp___230) temp___231) temp___230))))

;; def_axiom
  (assert
  (forall ((temp___234 (Array Int integer)))
  (forall ((temp___235 Int) (temp___236 Int))
  (= (get (temp_____aggregate_def_232 temp___234) temp___235 temp___236) temp___234))))

(declare-const rliteral integer)

;; rliteral_axiom
  (assert (= (integerqtint rliteral) 0))

;; def_axiom
  (assert
  (forall ((temp___239 Int))
  (=> (dynamic_invariant temp___239 true true true true)
  (forall ((temp___240 Int))
  (= (select (temp_____aggregate_def_237 temp___239) temp___240) rliteral)))))

(assert
;; defqtvc
 ;; File "p.adb", line 1, characters 0-0
  (not
  (forall ((x (Array Int map1)) (i3 Int))
  (=>
  (= x (p__x__aggregate_def
       (temp_____aggregate_def_232 (temp_____aggregate_def_237 0))))
  (=> (= i3 1)
  (=> (= (and (ite (<= 1 i3) true false) (ite (<= i3 3) true false)) true)
  (let ((temp___333 (+ i3 1))) (=> (<= temp___333 3) (<= 1 temp___333)))))))))
(check-sat)
